(benchmark gametime
:status unknown
:logic QF_AUFBV
:extrafuns ((gtINDEX61  BitVec[32]))
:extrafuns ((gtFIELD__bitsForTID0__gtAGG____anonstruct_D_Work_4  Array[32:32]))
:extrafuns ((gtINDEX62  BitVec[32]))
:extrafuns ((gtAGG__rtDWork  BitVec[32]))
:extrafuns ((gtINDEX59  BitVec[32]))
:extrafuns ((gtINDEX60  BitVec[32]))
:extrafuns ((gtINDEX57  BitVec[32]))
:extrafuns ((gtINDEX58  BitVec[32]))
:extrafuns ((gtINDEX55  BitVec[32]))
:extrafuns ((gtINDEX56  BitVec[32]))
:extrafuns ((gtINDEX54  BitVec[32]))
:extrafuns ((gtINDEX53  BitVec[32]))
:extrafuns ((gtINDEX52  BitVec[32]))
:extrafuns ((gtINDEX51  BitVec[32]))
:extrafuns ((gtINDEX49  BitVec[32]))
:extrafuns ((gtINDEX50  BitVec[32]))
:extrafuns ((gtINDEX47  BitVec[32]))
:extrafuns ((gtINDEX48  BitVec[32]))
:extrafuns ((gtINDEX45  BitVec[32]))
:extrafuns ((gtINDEX46  BitVec[32]))
:extrafuns ((gtINDEX43  BitVec[32]))
:extrafuns ((gtINDEX44  BitVec[32]))
:extrafuns ((gtINDEX41  BitVec[32]))
:extrafuns ((gtINDEX42  BitVec[32]))
:extrafuns ((gtINDEX39  BitVec[32]))
:extrafuns ((gtINDEX40  BitVec[32]))
:extrafuns ((gtINDEX37  BitVec[32]))
:extrafuns ((gtINDEX38  BitVec[32]))
:extrafuns ((gtINDEX35  BitVec[32]))
:extrafuns ((gtINDEX36  BitVec[32]))
:extrafuns ((gtINDEX33  BitVec[32]))
:extrafuns ((gtINDEX34  BitVec[32]))
:extrafuns ((gtINDEX31  BitVec[32]))
:extrafuns ((gtINDEX32  BitVec[32]))
:extrafuns ((gtINDEX29  BitVec[32]))
:extrafuns ((gtINDEX30  BitVec[32]))
:extrafuns ((gtINDEX28  BitVec[32]))
:extrafuns ((gtINDEX27  BitVec[32]))
:extrafuns ((gtINDEX26  BitVec[32]))
:extrafuns ((gtINDEX25  BitVec[32]))
:extrafuns ((gtINDEX24  BitVec[32]))
:extrafuns ((gtINDEX23  BitVec[32]))
:extrafuns ((gtINDEX22  BitVec[32]))
:extrafuns ((gtINDEX20  BitVec[32]))
:extrafuns ((gtINDEX21  BitVec[32]))
:extrafuns ((gtINDEX18  BitVec[32]))
:extrafuns ((gtINDEX19  BitVec[32]))
:extrafuns ((gtINDEX16  BitVec[32]))
:extrafuns ((gtINDEX17  BitVec[32]))
:extrafuns ((gtINDEX14  BitVec[32]))
:extrafuns ((gtINDEX15  BitVec[32]))
:extrafuns ((gtINDEX12  BitVec[32]))
:extrafuns ((gtINDEX13  BitVec[32]))
:extrafuns ((gtINDEX10  BitVec[32]))
:extrafuns ((gtINDEX11  BitVec[32]))
:extrafuns ((gtINDEX8  BitVec[32]))
:extrafuns ((gtINDEX9  BitVec[32]))
:extrafuns ((gtINDEX6  BitVec[32]))
:extrafuns ((gtINDEX7  BitVec[32]))
:extrafuns ((gtINDEX4  BitVec[32]))
:extrafuns ((gtINDEX5  BitVec[32]))
:extrafuns ((gtINDEX2  BitVec[32]))
:extrafuns ((gtINDEX3  BitVec[32]))
:extrafuns ((gtINDEX0  BitVec[32]))
:extrafuns ((gtINDEX1  BitVec[32]))
:extrafuns ((gtFIELD__is_Eng__gtAGG____anonstruct_bitsForTID0_5_1_  Array[32:1]))
:extrafuns ((gtFIELD__is_Eng__gtAGG____anonstruct_bitsForTID0_5_2_  Array[32:1]))
:extrafuns ((sf_previousEvent_1_  BitVec[32]))
:extrafuns ((sfEvent__2_  BitVec[32]))
:extrafuns ((gtFIELD__is_Eng__gtAGG____anonstruct_bitsForTID0_5  Array[32:1]))
:extrafuns ((gtFIELD__sent__gtAGG____anonstruct_D_Work_4_1_  Array[32:32]))
:extrafuns ((gtFIELD__sent__gtAGG____anonstruct_D_Work_4_2_  Array[32:32]))
:extrafuns ((gtFIELD__is_active_Eng__gtAGG____anonstruct_bitsForTID0_5  Array[32:1]))
:extrafuns ((gtFIELD__is_active_PURI__gtAGG____anonstruct_bitsForTID0_5  Array[32:1]))
:extrafuns ((gtFIELD__is_active_PVRP__gtAGG____anonstruct_bitsForTID0_5  Array[32:1]))
:extrafuns ((gtFIELD__is_active_PPVARP__gtAGG____anonstruct_bitsForTID0_5  Array[32:1]))
:extrafuns ((gtFIELD__is_PLRI__gtAGG____anonstruct_bitsForTID0_5_1_  Array[32:2]))
:extrafuns ((gtFIELD__is_PLRI__gtAGG____anonstruct_bitsForTID0_5_2_  Array[32:2]))
:extrafuns ((gtFIELD__is_active_PLRI__gtAGG____anonstruct_bitsForTID0_5  Array[32:1]))
:extrafuns ((sfEvent__1_  BitVec[32]))
:extrafuns ((gtFIELD__is_PAVI__gtAGG____anonstruct_bitsForTID0_5  Array[32:3]))
:extrafuns ((gtFIELD__is_active_PAVI__gtAGG____anonstruct_bitsForTID0_5  Array[32:1]))
:extrafuns ((sfEvent_  BitVec[32]))
:extrafuns ((gtFIELD__sent__gtAGG____anonstruct_D_Work_4  Array[32:32]))
:extrafuns ((gtFIELD__is_PLRI__gtAGG____anonstruct_bitsForTID0_5  Array[32:2]))
:extrapreds ((constraint108 ))
:extrapreds ((constraint107 ))
:extrapreds ((constraint106 ))
:extrapreds ((constraint105 ))
:extrapreds ((constraint104 ))
:extrapreds ((constraint103 ))
:extrapreds ((constraint102 ))
:extrapreds ((constraint101 ))
:extrapreds ((constraint100 ))
:extrapreds ((constraint99 ))
:extrapreds ((constraint98 ))
:extrapreds ((constraint97 ))
:extrapreds ((constraint96 ))
:extrapreds ((constraint95 ))
:extrapreds ((constraint94 ))
:extrapreds ((constraint93 ))
:extrapreds ((constraint92 ))
:extrapreds ((constraint91 ))
:extrapreds ((constraint90 ))
:extrapreds ((constraint89 ))
:extrapreds ((constraint88 ))
:extrapreds ((constraint87 ))
:extrapreds ((constraint86 ))
:extrapreds ((constraint85 ))
:extrapreds ((constraint84 ))
:extrapreds ((constraint83 ))
:extrapreds ((constraint82 ))
:extrapreds ((constraint81 ))
:extrapreds ((constraint80 ))
:extrapreds ((constraint79 ))
:extrapreds ((constraint78 ))
:extrapreds ((constraint77 ))
:extrapreds ((constraint76 ))
:extrapreds ((constraint75 ))
:extrapreds ((constraint74 ))
:extrapreds ((constraint73 ))
:extrapreds ((constraint72 ))
:extrapreds ((constraint71 ))
:extrapreds ((constraint70 ))
:extrapreds ((constraint69 ))
:extrapreds ((constraint68 ))
:extrapreds ((constraint67 ))
:extrapreds ((constraint66 ))
:extrapreds ((constraint65 ))
:extrapreds ((constraint64 ))
:extrapreds ((constraint63 ))
:extrapreds ((constraint62 ))
:extrapreds ((constraint61 ))
:extrapreds ((constraint60 ))
:extrapreds ((constraint59 ))
:extrapreds ((constraint58 ))
:extrapreds ((constraint57 ))
:extrapreds ((constraint56 ))
:extrapreds ((constraint55 ))
:extrapreds ((constraint54 ))
:extrapreds ((constraint53 ))
:extrapreds ((constraint52 ))
:extrapreds ((constraint51 ))
:extrapreds ((constraint50 ))
:extrapreds ((constraint49 ))
:extrapreds ((constraint48 ))
:extrapreds ((constraint47 ))
:extrapreds ((constraint46 ))
:extrapreds ((constraint45 ))
:extrapreds ((constraint44 ))
:extrapreds ((constraint43 ))
:extrapreds ((constraint42 ))
:extrapreds ((constraint41 ))
:extrapreds ((constraint40 ))
:extrapreds ((constraint39 ))
:extrapreds ((constraint38 ))
:extrapreds ((constraint37 ))
:extrapreds ((constraint36 ))
:extrapreds ((constraint35 ))
:extrapreds ((constraint34 ))
:extrapreds ((constraint33 ))
:extrapreds ((constraint32 ))
:extrapreds ((constraint31 ))
:extrapreds ((constraint30 ))
:extrapreds ((constraint29 ))
:extrapreds ((constraint28 ))
:extrapreds ((constraint27 ))
:extrapreds ((constraint26 ))
:extrapreds ((constraint25 ))
:extrapreds ((constraint24 ))
:extrapreds ((constraint23 ))
:extrapreds ((constraint22 ))
:extrapreds ((constraint21 ))
:extrapreds ((constraint20 ))
:extrapreds ((constraint19 ))
:extrapreds ((constraint18 ))
:extrapreds ((constraint17 ))
:extrapreds ((constraint16 ))
:extrapreds ((constraint15 ))
:extrapreds ((constraint14 ))
:extrapreds ((constraint13 ))
:extrapreds ((constraint12 ))
:extrapreds ((constraint11 ))
:extrapreds ((constraint10 ))
:extrapreds ((constraint9 ))
:extrapreds ((constraint8 ))
:extrapreds ((constraint7 ))
:extrapreds ((constraint6 ))
:extrapreds ((constraint5 ))
:extrapreds ((constraint4 ))
:extrapreds ((constraint3 ))
:extrapreds ((constraint2 ))
:extrapreds ((constraint1 ))
:extrapreds ((constraint0 ))
:formula
(flet ($x566 (and constraint0 constraint1 constraint2 constraint3 constraint4 constraint5 constraint6 constraint7 constraint8 constraint9 constraint10 constraint11 constraint12 constraint13 constraint14 constraint15 constraint16 constraint17 constraint18 constraint19 constraint20 constraint21 constraint22 constraint23 constraint24 constraint25 constraint26 constraint27 constraint28 constraint29 constraint30 constraint31 constraint32 constraint33 constraint34 constraint35 constraint36 constraint37 constraint38 constraint39 constraint40 constraint41 constraint42 constraint43 constraint44 constraint45 constraint46 constraint47 constraint48 constraint49 constraint50 constraint51 constraint52 constraint53 constraint54 constraint55 constraint56 constraint57 constraint58 constraint59 constraint60 constraint61 constraint62 constraint63 constraint64 constraint65 constraint66 constraint67 constraint68 constraint69 constraint70 constraint71 constraint72 constraint73 constraint74 constraint75 constraint76 constraint77 constraint78 constraint79 constraint80 constraint81 constraint82 constraint83 constraint84 constraint85 constraint86 constraint87 constraint88 constraint89 constraint90 constraint91 constraint92 constraint93 constraint94 constraint95 constraint96 constraint97 constraint98 constraint99 constraint100 constraint101 constraint102 constraint103 constraint104 constraint105 constraint106 constraint107 constraint108))
(flet ($x346 (= gtINDEX62 (select gtFIELD__bitsForTID0__gtAGG____anonstruct_D_Work_4 gtINDEX61)))
(flet ($x342 (= gtINDEX60 (select gtFIELD__bitsForTID0__gtAGG____anonstruct_D_Work_4 gtINDEX59)))
(flet ($x338 (= gtINDEX58 (select gtFIELD__bitsForTID0__gtAGG____anonstruct_D_Work_4 gtINDEX57)))
(flet ($x334 (= gtINDEX56 (select gtFIELD__bitsForTID0__gtAGG____anonstruct_D_Work_4 gtINDEX55)))
(flet ($x326 (= gtINDEX50 (select gtFIELD__bitsForTID0__gtAGG____anonstruct_D_Work_4 gtINDEX49)))
(flet ($x322 (= gtINDEX48 (select gtFIELD__bitsForTID0__gtAGG____anonstruct_D_Work_4 gtINDEX47)))
(flet ($x318 (= gtINDEX46 (select gtFIELD__bitsForTID0__gtAGG____anonstruct_D_Work_4 gtINDEX45)))
(flet ($x314 (= gtINDEX44 (select gtFIELD__bitsForTID0__gtAGG____anonstruct_D_Work_4 gtINDEX43)))
(flet ($x310 (= gtINDEX42 (select gtFIELD__bitsForTID0__gtAGG____anonstruct_D_Work_4 gtINDEX41)))
(flet ($x306 (= gtINDEX40 (select gtFIELD__bitsForTID0__gtAGG____anonstruct_D_Work_4 gtINDEX39)))
(flet ($x302 (= gtINDEX38 (select gtFIELD__bitsForTID0__gtAGG____anonstruct_D_Work_4 gtINDEX37)))
(flet ($x298 (= gtINDEX36 (select gtFIELD__bitsForTID0__gtAGG____anonstruct_D_Work_4 gtINDEX35)))
(flet ($x294 (= gtINDEX34 (select gtFIELD__bitsForTID0__gtAGG____anonstruct_D_Work_4 gtINDEX33)))
(flet ($x290 (= gtINDEX32 (select gtFIELD__bitsForTID0__gtAGG____anonstruct_D_Work_4 gtINDEX31)))
(flet ($x286 (= gtINDEX30 (select gtFIELD__bitsForTID0__gtAGG____anonstruct_D_Work_4 gtINDEX29)))
(flet ($x275 (= gtINDEX21 (select gtFIELD__bitsForTID0__gtAGG____anonstruct_D_Work_4 gtINDEX20)))
(flet ($x271 (= gtINDEX19 (select gtFIELD__bitsForTID0__gtAGG____anonstruct_D_Work_4 gtINDEX18)))
(flet ($x267 (= gtINDEX17 (select gtFIELD__bitsForTID0__gtAGG____anonstruct_D_Work_4 gtINDEX16)))
(flet ($x263 (= gtINDEX15 (select gtFIELD__bitsForTID0__gtAGG____anonstruct_D_Work_4 gtINDEX14)))
(flet ($x259 (= gtINDEX13 (select gtFIELD__bitsForTID0__gtAGG____anonstruct_D_Work_4 gtINDEX12)))
(flet ($x255 (= gtINDEX11 (select gtFIELD__bitsForTID0__gtAGG____anonstruct_D_Work_4 gtINDEX10)))
(flet ($x251 (= gtINDEX9 (select gtFIELD__bitsForTID0__gtAGG____anonstruct_D_Work_4 gtINDEX8)))
(flet ($x247 (= gtINDEX7 (select gtFIELD__bitsForTID0__gtAGG____anonstruct_D_Work_4 gtINDEX6)))
(flet ($x243 (= gtINDEX5 (select gtFIELD__bitsForTID0__gtAGG____anonstruct_D_Work_4 gtINDEX4)))
(flet ($x239 (= gtINDEX3 (select gtFIELD__bitsForTID0__gtAGG____anonstruct_D_Work_4 gtINDEX2)))
(flet ($x235 (= gtINDEX1 (select gtFIELD__bitsForTID0__gtAGG____anonstruct_D_Work_4 gtINDEX0)))
(let (?x219 (extract[0:0] bv1[32]))
(let (?x229 (store gtFIELD__is_Eng__gtAGG____anonstruct_bitsForTID0_5_1_ gtINDEX62 ?x219))
(flet ($x438 (iff constraint45 (= gtFIELD__is_Eng__gtAGG____anonstruct_bitsForTID0_5_2_ ?x229)))
(let (?x225 (select gtFIELD__is_Eng__gtAGG____anonstruct_bitsForTID0_5_1_ gtINDEX60))
(let (?x220 (store gtFIELD__is_Eng__gtAGG____anonstruct_bitsForTID0_5 gtINDEX58 ?x219))
(flet ($x432 (iff constraint42 (= gtFIELD__is_Eng__gtAGG____anonstruct_bitsForTID0_5_1_ ?x220)))
(let (?x216 (zero_extend[31] (select gtFIELD__is_Eng__gtAGG____anonstruct_bitsForTID0_5 gtINDEX56)))
(let (?x212 (store gtFIELD__sent__gtAGG____anonstruct_D_Work_4_1_ gtINDEX54 bv0[32]))
(flet ($x428 (iff constraint40 (= gtFIELD__sent__gtAGG____anonstruct_D_Work_4_2_ ?x212)))
(let (?x119 (bvmul bv4294967295[32] bv1[32]))
(flet ($x210 (= (select gtFIELD__sent__gtAGG____anonstruct_D_Work_4_1_ gtINDEX53) ?x119))
(flet ($x206 (= (select gtFIELD__sent__gtAGG____anonstruct_D_Work_4_1_ gtINDEX52) bv9[32]))
(flet ($x202 (= (select gtFIELD__sent__gtAGG____anonstruct_D_Work_4_1_ gtINDEX51) bv4[32]))
(let (?x198 (zero_extend[31] (select gtFIELD__is_Eng__gtAGG____anonstruct_bitsForTID0_5 gtINDEX50)))
(let (?x192 (select gtFIELD__is_active_Eng__gtAGG____anonstruct_bitsForTID0_5 gtINDEX48))
(let (?x186 (select gtFIELD__is_active_PURI__gtAGG____anonstruct_bitsForTID0_5 gtINDEX46))
(let (?x180 (select gtFIELD__is_active_PVRP__gtAGG____anonstruct_bitsForTID0_5 gtINDEX44))
(let (?x174 (select gtFIELD__is_active_PPVARP__gtAGG____anonstruct_bitsForTID0_5 gtINDEX42))
(let (?x76 (extract[1:0] bv0[32]))
(let (?x171 (store gtFIELD__is_PLRI__gtAGG____anonstruct_bitsForTID0_5_1_ gtINDEX40 ?x76))
(flet ($x410 (iff constraint31 (= gtFIELD__is_PLRI__gtAGG____anonstruct_bitsForTID0_5_2_ ?x171)))
(let (?x166 (select gtFIELD__is_PLRI__gtAGG____anonstruct_bitsForTID0_5_1_ gtINDEX38))
(let (?x161 (select gtFIELD__is_PLRI__gtAGG____anonstruct_bitsForTID0_5_1_ gtINDEX36))
(let (?x156 (select gtFIELD__is_active_PLRI__gtAGG____anonstruct_bitsForTID0_5 gtINDEX34))
(let (?x148 (select gtFIELD__is_PAVI__gtAGG____anonstruct_bitsForTID0_5 gtINDEX32))
(let (?x143 (select gtFIELD__is_active_PAVI__gtAGG____anonstruct_bitsForTID0_5 gtINDEX30))
(flet ($x135 (= gtFIELD__sent__gtAGG____anonstruct_D_Work_4_1_ (store gtFIELD__sent__gtAGG____anonstruct_D_Work_4 gtINDEX28 ?x119)))
(flet ($x132 (= (select gtFIELD__sent__gtAGG____anonstruct_D_Work_4 gtINDEX27) bv3[32]))
(flet ($x128 (= (select gtFIELD__sent__gtAGG____anonstruct_D_Work_4 gtINDEX26) bv2[32]))
(flet ($x124 (= (select gtFIELD__sent__gtAGG____anonstruct_D_Work_4 gtINDEX25) bv1[32]))
(flet ($x120 (= (select gtFIELD__sent__gtAGG____anonstruct_D_Work_4 gtINDEX24) ?x119))
(flet ($x114 (= (select gtFIELD__sent__gtAGG____anonstruct_D_Work_4 gtINDEX23) bv9[32]))
(flet ($x109 (= (select gtFIELD__sent__gtAGG____anonstruct_D_Work_4 gtINDEX22) bv4[32]))
(let (?x104 (zero_extend[31] (select gtFIELD__is_Eng__gtAGG____anonstruct_bitsForTID0_5 gtINDEX21)))
(let (?x98 (select gtFIELD__is_active_Eng__gtAGG____anonstruct_bitsForTID0_5 gtINDEX19))
(let (?x92 (select gtFIELD__is_active_PURI__gtAGG____anonstruct_bitsForTID0_5 gtINDEX17))
(let (?x86 (select gtFIELD__is_active_PVRP__gtAGG____anonstruct_bitsForTID0_5 gtINDEX15))
(let (?x80 (select gtFIELD__is_active_PPVARP__gtAGG____anonstruct_bitsForTID0_5 gtINDEX13))
(let (?x77 (store gtFIELD__is_PLRI__gtAGG____anonstruct_bitsForTID0_5 gtINDEX11 ?x76))
(flet ($x364 (iff constraint8 (= gtFIELD__is_PLRI__gtAGG____anonstruct_bitsForTID0_5_1_ ?x77)))
(let (?x72 (zero_extend[30] (select gtFIELD__is_PLRI__gtAGG____anonstruct_bitsForTID0_5 gtINDEX9)))
(let (?x67 (zero_extend[30] (select gtFIELD__is_PLRI__gtAGG____anonstruct_bitsForTID0_5 gtINDEX7)))
(let (?x61 (select gtFIELD__is_active_PLRI__gtAGG____anonstruct_bitsForTID0_5 gtINDEX5))
(let (?x51 (zero_extend[29] (select gtFIELD__is_PAVI__gtAGG____anonstruct_bitsForTID0_5 gtINDEX3)))
(let (?x44 (select gtFIELD__is_active_PAVI__gtAGG____anonstruct_bitsForTID0_5 gtINDEX1))
(flet ($x565 (and (iff constraint0 (not (= sfEvent_ bv8[32]))) (iff constraint1 (not (= (zero_extend[31] ?x44) bv0[32]))) (iff constraint2 (= ?x51 bv1[32])) (iff constraint3 (not (= sfEvent_ bv2[32]))) (iff constraint4 (not (= sfEvent_ bv3[32]))) (iff constraint5 (not (= (zero_extend[31] ?x61) bv0[32]))) (iff constraint6 (not (= ?x67 bv1[32]))) (iff constraint7 (not (= ?x72 bv2[32]))) $x364 (iff constraint9 (not (not (= (zero_extend[31] ?x80) bv0[32])))) (iff constraint10 (not (not (= (zero_extend[31] ?x86) bv0[32])))) (iff constraint11 (not (not (= (zero_extend[31] ?x92) bv0[32])))) (iff constraint12 (not (= (zero_extend[31] ?x98) bv0[32]))) (iff constraint13 (= ?x104 bv1[32])) (iff constraint14 (not $x109)) (iff constraint15 (not $x114)) (iff constraint16 (not $x120)) (iff constraint17 (not $x124)) (iff constraint18 (not $x128)) (iff constraint19 $x132) (iff constraint20 $x135) (iff constraint21 (= sf_previousEvent_1_ sfEvent_)) (iff constraint22 (= sfEvent__1_ bv4[32])) (iff constraint23 (not (= sfEvent__1_ bv8[32]))) (iff constraint24 (not (= (zero_extend[31] ?x143) bv0[32]))) (iff constraint25 (= (zero_extend[29] ?x148) bv1[32])) (iff constraint26 (not (= sfEvent__1_ bv2[32]))) (iff constraint27 (not (= sfEvent__1_ bv3[32]))) (iff constraint28 (not (= (zero_extend[31] ?x156) bv0[32]))) (iff constraint29 (not (= (zero_extend[30] ?x161) bv1[32]))) (iff constraint30 (not (= (zero_extend[30] ?x166) bv2[32]))) $x410 (iff constraint32 (not (not (= (zero_extend[31] ?x174) bv0[32])))) (iff constraint33 (not (not (= (zero_extend[31] ?x180) bv0[32])))) (iff constraint34 (not (not (= (zero_extend[31] ?x186) bv0[32])))) (iff constraint35 (not (= (zero_extend[31] ?x192) bv0[32]))) (iff constraint36 (= ?x198 bv1[32])) (iff constraint37 (not $x202)) (iff constraint38 (not $x206)) (iff constraint39 $x210) $x428 (iff constraint41 (= ?x216 bv1[32])) $x432 (iff constraint43 (= sfEvent__2_ sf_previousEvent_1_)) (iff constraint44 (= (zero_extend[31] ?x225) bv1[32])) $x438 (iff constraint46 (= gtINDEX0 gtAGG__rtDWork)) (iff constraint47 $x235) (iff constraint48 (= gtINDEX2 gtAGG__rtDWork)) (iff constraint49 $x239) (iff constraint50 (= gtINDEX4 gtAGG__rtDWork)) (iff constraint51 $x243) (iff constraint52 (= gtINDEX6 gtAGG__rtDWork)) (iff constraint53 $x247) (iff constraint54 (= gtINDEX8 gtAGG__rtDWork)) (iff constraint55 $x251) (iff constraint56 (= gtINDEX10 gtAGG__rtDWork)) (iff constraint57 $x255) (iff constraint58 (= gtINDEX12 gtAGG__rtDWork)) (iff constraint59 $x259) (iff constraint60 (= gtINDEX14 gtAGG__rtDWork)) (iff constraint61 $x263) (iff constraint62 (= gtINDEX16 gtAGG__rtDWork)) (iff constraint63 $x267) (iff constraint64 (= gtINDEX18 gtAGG__rtDWork)) (iff constraint65 $x271) (iff constraint66 (= gtINDEX20 gtAGG__rtDWork)) (iff constraint67 $x275) (iff constraint68 (= gtINDEX22 gtAGG__rtDWork)) (iff constraint69 (= gtINDEX23 gtAGG__rtDWork)) (iff constraint70 (= gtINDEX24 gtAGG__rtDWork)) (iff constraint71 (= gtINDEX25 gtAGG__rtDWork)) (iff constraint72 (= gtINDEX26 gtAGG__rtDWork)) (iff constraint73 (= gtINDEX27 gtAGG__rtDWork)) (iff constraint74 (= gtINDEX28 gtAGG__rtDWork)) (iff constraint75 (= gtINDEX29 gtAGG__rtDWork)) (iff constraint76 $x286) (iff constraint77 (= gtINDEX31 gtAGG__rtDWork)) (iff constraint78 $x290) (iff constraint79 (= gtINDEX33 gtAGG__rtDWork)) (iff constraint80 $x294) (iff constraint81 (= gtINDEX35 gtAGG__rtDWork)) (iff constraint82 $x298) (iff constraint83 (= gtINDEX37 gtAGG__rtDWork)) (iff constraint84 $x302) (iff constraint85 (= gtINDEX39 gtAGG__rtDWork)) (iff constraint86 $x306) (iff constraint87 (= gtINDEX41 gtAGG__rtDWork)) (iff constraint88 $x310) (iff constraint89 (= gtINDEX43 gtAGG__rtDWork)) (iff constraint90 $x314) (iff constraint91 (= gtINDEX45 gtAGG__rtDWork)) (iff constraint92 $x318) (iff constraint93 (= gtINDEX47 gtAGG__rtDWork)) (iff constraint94 $x322) (iff constraint95 (= gtINDEX49 gtAGG__rtDWork)) (iff constraint96 $x326) (iff constraint97 (= gtINDEX51 gtAGG__rtDWork)) (iff constraint98 (= gtINDEX52 gtAGG__rtDWork)) (iff constraint99 (= gtINDEX53 gtAGG__rtDWork)) (iff constraint100 (= gtINDEX54 gtAGG__rtDWork)) (iff constraint101 (= gtINDEX55 gtAGG__rtDWork)) (iff constraint102 $x334) (iff constraint103 (= gtINDEX57 gtAGG__rtDWork)) (iff constraint104 $x338) (iff constraint105 (= gtINDEX59 gtAGG__rtDWork)) (iff constraint106 $x342) (iff constraint107 (= gtINDEX61 gtAGG__rtDWork)) (iff constraint108 $x346)))
(and $x565 $x566))))))))))))))))))))))))))))))))))))))))))))))))))))))))))))))))))))))))))
)
